45 82 99 94 26 80 
59 2 18 84 96 91 58 
36 19 49 13 
92 83 41 54 100 
14 98 44 57 48 
63 64 50 68 
72 12 22 97 60 
75 73 56 74 93 
33 29 78 3 1 70 
39 23 67 55 4 77 
47 11 90 20 
31 30 51 10 32 
28 61 86 37 17 
42 88 66 89 
95 76 79 34 24 25 
65 71 9 35 
5 52 87 43 
27 21 40 53 
15 46 
16 85 
62 7 
69 6 
81 
38 
8 

